149
100
36
37
8
2
2
4
3
13
8
50
17
30
21
8
27
16
33
15
10
25
26
2
29
33
5
37
17
17
15
7
6
17
25
4
10
41
33
8
4
15
30
12
28
19
13
27
21
21
15
9
18
1
8
1
39
18
7
34
44
24
27
22
9
18
33
5
32
33
35
39
5
9
39
25
27
4
42
15
30
15
29
22
5
17
47
20
9
36
6
16
41
21
10
2
11
44
8
4
38
11
15
5
8
37
42
14
22
45
25
5
46
3
5
31
10
35
2
4
33
34
46
7
19
11
11
6
1
39
19
17
3
23
44
13
30
30
46
49
6
19
31
23
11
43
10
8
20
27
1
